db/data/200687811105260872445861892249223223.z3.out
-------------------
2500.132980682
